WARNING: for repeatability, setting FPU to use double precision
============================[ Problem Statistics ]=============================
|                                                                             |
|  Number of symmetries:          39                                          |
|  Number of invertingSyms:        0                                          |
|  Number of variables:           420                                         |
|  Number of clauses:            4221                                         |
|  Parse time:                   0.00 s                                       |
|                                                                             |
============================[ Search Statistics ]==============================
| Conflicts |          ORIGINAL         |          LEARNT          | Progress |
|           |    Vars  Clauses Literals |    Limit  Clauses Lit/Cl |          |
===============================================================================
|       100 |     420     4221     8820 |     1547      100    147 |  0.001 % |
|       250 |     420     4221     8820 |     1702      250    108 |  0.001 % |
|       475 |     420     4221     8820 |     1872      475    116 |  0.001 % |
|       812 |     420     4221     8820 |     2059      812    126 |  0.001 % |
|      1318 |     420     4221     8820 |     2265     1318    124 |  0.001 % |
|      2077 |     420     4221     8820 |     2492     2077    120 |  0.001 % |
|      3216 |     420     4221     8820 |     2741     1789    110 |  0.001 % |
|      4924 |     420     4221     8820 |     3016     2003    107 |  0.001 % |
|      7486 |     420     4221     8820 |     3317     2909    152 |  0.012 % |
|     11330 |     420     4221     8820 |     3649     3371    157 |  0.001 % |
|     17096 |     420     4221     8820 |     4014     3434    170 |  0.001 % |
|     25745 |     420     4221     8820 |     4415     3754    180 |  0.001 % |
|     38719 |     420     4221     8820 |     4857     2964    178 |  0.001 % |
|     58180 |     420     4221     8820 |     5343     4633    177 |  0.001 % |
|     87372 |     420     4221     8820 |     5877     3484    179 |  0.001 % |
|    131161 |     420     4221     8820 |     6465     4793    177 |  0.001 % |
|    196845 |     420     4221     8820 |     7111     3676    185 |  0.001 % |
|    295371 |     420     4221     8820 |     7822     7221    174 |  0.001 % |
|    443160 |     420     4221     8820 |     8605     5874    180 |  0.001 % |
|    664843 |     420     4221     8820 |     9465     6339    177 |  0.001 % |
|    997368 |     420     4221     8820 |    10412     5568    159 |  0.001 % |
|   1496156 |     420     4221     8820 |    11453    10129    178 |  0.001 % |
|   2244338 |     420     4221     8820 |    12598     7342    180 |  0.001 % |
|   3366612 |     420     4221     8820 |    13858     7770    170 |  0.001 % |
|   5050023 |     420     4221     8820 |    15244     7893    182 |  0.001 % |
|   7575139 |     420     4221     8820 |    16768    12651    170 |  0.001 % |
|  11362814 |     420     4221     8820 |    18445    16110    215 |  0.001 % |
|  17044326 |     420     4221     8820 |    20290    15991    157 |  0.001 % |
|  25566595 |     420     4221     8820 |    22319    15586    158 |  0.001 % |
===============================================================================
restarts              : 50173
conflicts             : 36583598       (7196 /sec)
symconflicts          : 2977833        (586 /sec)
decisions             : 64568696       (0.00 % random) (12701 /sec)
propagations          : 696149369      (136936 /sec)
sympropagations       : 14422750       (2837 /sec)
conflict literals     : 6347692351     (7.01 % deleted)
Memory used           : 132.00 MB
CPU time              : 5083.74 s

INDETERMINATE
